1643010
8,76,65,9,63,14,22,23,4,34,97,100,0,81,89,108,21,103,57,53,101,104,92,95,107,77,32,105,54,67,39,7,27,35,11,59,41,12,20,79,47,73,91,3,66,78,19,43,29,5,60,84,42,94,31,50,83,58,1,51,33,44,28,45,80,93,106,15,24,82,2,62,102,55,16,52,99,86,61,18,72,87,64,6,17,49,75,98,70,46,38,13,69,30,96,88,90,10,48,40,37,68,26,85,74,56,71,25,36,8